maximize
obj: -1 __1__3 - 0.8 __2__3 - 0.7 __3__3 - 2.5 __4__3 - 1 __5_ - 0.5 __6_ - 2 __7_ - 0.3 __8_ - 0.5 __1,1_ - 0.4 __2,1_ - 0.35 __3,1_ - 1.25 __4,1_ - 0.5 __5,1_ - 0.25 __6,1_ - 1 __7,1_ - 0.15 __8,1_ - 0.4 __1,2_ - 0.32000000000000006 __2,2_ - 0.27999999999999997 __3,2_ - 1 __4,2_ - 0.4 __5,2_ - 0.2 __6,2_ - 0.8 __7,2_ - 0.12 __8,2_ - 0.35 __1,3_ - 0.27999999999999997 __2,3_ - 0.24499999999999997 __3,3_ - 0.875 __4,3_ - 0.35 __5,3_ - 0.175 __6,3_ - 0.7 __7,3_ - 0.105 __8,3_ - 1.25 __1,4_ - 1 __2,4_ - 0.875 __3,4_ - 3.125 __4,4_ - 1.25 __5,4_ - 0.625 __6,4_ - 2.5 __7,4_ - 0.375 __8,4_ - 0.5 __1,5_ - 0.4 __2,5_ - 0.35 __3,5_ - 1.25 __4,5_ - 0.5 __5,5_ - 0.25 __6,5_ - 1 __7,5_ - 0.15 __8,5_ - 0.25 __1,6_ - 0.2 __2,6_ - 0.175 __3,6_ - 0.625 __4,6_ - 0.25 __5,6_ - 0.125 __6,6_ - 0.5 __7,6_ - 0.075 __8,6_ - 1 __1,7_ - 0.8 __2,7_ - 0.7 __3,7_ - 2.5 __4,7_ - 1 __5,7_ - 0.5 __6,7_ - 2 __7,7_ - 0.3 __8,7_ - 0.15 __1,8_ - 0.12 __2,8_ - 0.105 __3,8_ - 0.375 __4,8_ - 0.15 __5,8_ - 0.075 __6,8_ - 0.3 __7,8_ - 0.045 __8,8_ - 3 _ - 1 __1__6 - 1 __2__6 - 1 __3__6 - 1 __4__6 - 1 __1,1__2 - 0.8 __2,1__2 - 0.7 __3,1__2 - 2.5 __4,1__2 - 1 __5,1__1 - 0.5 __6,1__1 - 2 __7,1__1 - 0.3 __8,1__1 - 1 __1,2__2 - 0.8 __2,2__2 - 0.7 __3,2__2 - 2.5 __4,2__2 - 1 __5,2__1 - 0.5 __6,2__1 - 2 __7,2__1 - 0.3 __8,2__1 - 1 __1,3__2 - 0.8 __2,3__2 - 0.7 __3,3__2 - 2.5 __4,3__2 - 1 __5,3__1 - 0.5 __6,3__1 - 2 __7,3__1 - 0.3 __8,3__1 - 1 __1,4__2 - 0.8 __2,4__2 - 0.7 __3,4__2 - 2.5 __4,4__2 - 1 __5,4__1 - 0.5 __6,4__1 - 2 __7,4__1 - 0.3 __8,4__1 - 0.5 __1,1__1 - 0.5 __1,2__1 - 0.5 __1,3__1 - 0.5 __1,4__1 - 0.5 __2,1__1 - 0.5 __2,2__1 - 0.5 __2,3__1 - 0.5 __2,4__1 - 0.5 __3,1__1 - 0.5 __3,2__1 - 0.5 __3,3__1 - 0.5 __3,4__1 - 0.5 __4,1__1 - 0.5 __4,2__1 - 0.5 __4,3__1 - 0.5 __4,4__1 + [ -2 q0_var_1_ * x_1_ - 2 q0_var_2_ * x_2_ - 2 q0_var_3_ * x_3_ - 2 q0_var_4_ * x_4_ ]/2
subject to
c1_2: -1 q0_var_1_ <= 100
c2_2: -1 q0_var_2_ <= 100
c3_2: -1 q0_var_3_ <= 100
c4_2: -1 q0_var_4_ <= 100
c5_2: 1 q0_var_1_ <= 100
c6_2: 1 q0_var_2_ <= 100
c7_2: 1 q0_var_3_ <= 100
c8_2: 1 q0_var_4_ <= 100
c9_2: 1 x_1_ <= 1
c10_2: 1 x_2_ <= 0.8
c11_2: 1 x_3_ <= 0.7
c12_2: 1 x_4_ <= 2.5
c13_2: -1 x_1_ <= 1
c14_2: -1 x_2_ <= 0.5
c15_2: -1 x_3_ <= 2
c16_2: -1 x_4_ <= 0.3
c17_2: -1 x_1_ - 1 u_1_ <= 0
c18_2: -1 x_2_ - 0.8 u_2_ <= 0
c19_2: -1 x_3_ - 2 u_3_ <= 0
c20_2: -1 x_4_ - 2.5 u_4_ <= 0
c21_2: 1 x_1_ - 1 u_1_ <= 0
c22_2: 1 x_2_ - 0.8 u_2_ <= 0
c23_2: 1 x_3_ - 2 u_3_ <= 0
c24_2: 1 x_4_ - 2.5 u_4_ <= 0
c25_2: 1 u_1_ + 1 u_2_ + 1 u_3_ + 1 u_4_ <= 3
c26_2: 1 u_1_ <= 1
c27_2: 1 u_2_ <= 1
c28_2: 1 u_3_ <= 1
c29_2: 1 u_4_ <= 1
c1_1: 1 X_1,1_ - 2 R_1,1_ + 1 U_1,1_ >= 0
c2_1: 1 X_1,2_ - 1 R_2,1_ - 0.8 R_1,2_ + 0.8 U_1,2_ >= 0
c3_1: 1 X_1,3_ - 1 R_3,1_ - 2 R_1,3_ + 2 U_1,3_ >= 0
c4_1: 1 X_1,4_ - 1 R_4,1_ - 2.5 R_1,4_ + 2.5 U_1,4_ >= 0
c5_1: 1 X_1,2_ - 1 R_2,1_ - 0.8 R_1,2_ + 0.8 U_1,2_ >= 0
c6_1: 1 X_2,2_ - 1.6 R_2,2_ + 0.6400000000000001 U_2,2_ >= 0
c7_1: 1 X_2,3_ - 0.8 R_3,2_ - 2 R_2,3_ + 1.6 U_2,3_ >= 0
c8_1: 1 X_2,4_ - 0.8 R_4,2_ - 2.5 R_2,4_ + 2 U_2,4_ >= 0
c9_1: 1 X_1,3_ - 1 R_3,1_ - 2 R_1,3_ + 2 U_1,3_ >= 0
c10_1: 1 X_2,3_ - 0.8 R_3,2_ - 2 R_2,3_ + 1.6 U_2,3_ >= 0
c11_1: 1 X_3,3_ - 4 R_3,3_ + 4 U_3,3_ >= 0
c12_1: 1 X_3,4_ - 2 R_4,3_ - 2.5 R_3,4_ + 5 U_3,4_ >= 0
c13_1: 1 X_1,4_ - 1 R_4,1_ - 2.5 R_1,4_ + 2.5 U_1,4_ >= 0
c14_1: 1 X_2,4_ - 0.8 R_4,2_ - 2.5 R_2,4_ + 2 U_2,4_ >= 0
c15_1: 1 X_3,4_ - 2 R_4,3_ - 2.5 R_3,4_ + 5 U_3,4_ >= 0
c16_1: 1 X_4,4_ - 5 R_4,4_ + 6.25 U_4,4_ >= 0
c17_1: 1 X_1,1_ + 2 R_1,1_ + 1 U_1,1_ >= 0
c18_1: 1 X_1,2_ + 1 R_2,1_ + 0.8 R_1,2_ + 0.8 U_1,2_ >= 0
c19_1: 1 X_1,3_ + 1 R_3,1_ + 2 R_1,3_ + 2 U_1,3_ >= 0
c20_1: 1 X_1,4_ + 1 R_4,1_ + 2.5 R_1,4_ + 2.5 U_1,4_ >= 0
c21_1: 1 X_1,2_ + 1 R_2,1_ + 0.8 R_1,2_ + 0.8 U_1,2_ >= 0
c22_1: 1 X_2,2_ + 1.6 R_2,2_ + 0.6400000000000001 U_2,2_ >= 0
c23_1: 1 X_2,3_ + 0.8 R_3,2_ + 2 R_2,3_ + 1.6 U_2,3_ >= 0
c24_1: 1 X_2,4_ + 0.8 R_4,2_ + 2.5 R_2,4_ + 2 U_2,4_ >= 0
c25_1: 1 X_1,3_ + 1 R_3,1_ + 2 R_1,3_ + 2 U_1,3_ >= 0
c26_1: 1 X_2,3_ + 0.8 R_3,2_ + 2 R_2,3_ + 1.6 U_2,3_ >= 0
c27_1: 1 X_3,3_ + 4 R_3,3_ + 4 U_3,3_ >= 0
c28_1: 1 X_3,4_ + 2 R_4,3_ + 2.5 R_3,4_ + 5 U_3,4_ >= 0
c29_1: 1 X_1,4_ + 1 R_4,1_ + 2.5 R_1,4_ + 2.5 U_1,4_ >= 0
c30_1: 1 X_2,4_ + 0.8 R_4,2_ + 2.5 R_2,4_ + 2 U_2,4_ >= 0
c31_1: 1 X_3,4_ + 2 R_4,3_ + 2.5 R_3,4_ + 5 U_3,4_ >= 0
c32_1: 1 X_4,4_ + 5 R_4,4_ + 6.25 U_4,4_ >= 0
c33_1: -1 X_1,1_ + 1 U_1,1_ >= 0
c34_1: -1 X_1,2_ - 1 R_2,1_ + 0.8 R_1,2_ + 0.8 U_1,2_ >= 0
c35_1: -1 X_1,3_ - 1 R_3,1_ + 2 R_1,3_ + 2 U_1,3_ >= 0
c36_1: -1 X_1,4_ - 1 R_4,1_ + 2.5 R_1,4_ + 2.5 U_1,4_ >= 0
c37_1: -1 X_1,2_ + 1 R_2,1_ - 0.8 R_1,2_ + 0.8 U_1,2_ >= 0
c38_1: -1 X_2,2_ + 0.6400000000000001 U_2,2_ >= 0
c39_1: -1 X_2,3_ - 0.8 R_3,2_ + 2 R_2,3_ + 1.6 U_2,3_ >= 0
c40_1: -1 X_2,4_ - 0.8 R_4,2_ + 2.5 R_2,4_ + 2 U_2,4_ >= 0
c41_1: -1 X_1,3_ + 1 R_3,1_ - 2 R_1,3_ + 2 U_1,3_ >= 0
c42_1: -1 X_2,3_ + 0.8 R_3,2_ - 2 R_2,3_ + 1.6 U_2,3_ >= 0
c43_1: -1 X_3,3_ + 4 U_3,3_ >= 0
c44_1: -1 X_3,4_ - 2 R_4,3_ + 2.5 R_3,4_ + 5 U_3,4_ >= 0
c45_1: -1 X_1,4_ + 1 R_4,1_ - 2.5 R_1,4_ + 2.5 U_1,4_ >= 0
c46_1: -1 X_2,4_ + 0.8 R_4,2_ - 2.5 R_2,4_ + 2 U_2,4_ >= 0
c47_1: -1 X_3,4_ + 2 R_4,3_ - 2.5 R_3,4_ + 5 U_3,4_ >= 0
c48_1: -1 X_4,4_ + 6.25 U_4,4_ >= 0
c49_1: -2 x_1_ + 1 X_1,1_ >= -1
c50_1: -0.8 x_1_ - 1 x_2_ + 1 X_1,2_ >= -0.8
c51_1: -0.7 x_1_ - 1 x_3_ + 1 X_1,3_ >= -0.7
c52_1: -2.5 x_1_ - 1 x_4_ + 1 X_1,4_ >= -2.5
c53_1: -1 X_1,1_ >= -1
c54_1: -0.5 x_1_ + 1 x_2_ - 1 X_1,2_ >= -0.5
c55_1: -2 x_1_ + 1 x_3_ - 1 X_1,3_ >= -2
c56_1: -0.3 x_1_ + 1 x_4_ - 1 X_1,4_ >= -0.3
c57_1: -0.8 x_1_ - 1 x_2_ + 1 X_1,2_ >= -0.8
c58_1: -1.6 x_2_ + 1 X_2,2_ >= -0.6400000000000001
c59_1: -0.7 x_2_ - 0.8 x_3_ + 1 X_2,3_ >= -0.5599999999999999
c60_1: -2.5 x_2_ - 0.8 x_4_ + 1 X_2,4_ >= -2
c61_1: 0.8 x_1_ - 1 x_2_ - 1 X_1,2_ >= -0.8
c62_1: 0.30000000000000004 x_2_ - 1 X_2,2_ >= -0.4
c63_1: -2 x_2_ + 0.8 x_3_ - 1 X_2,3_ >= -1.6
c64_1: -0.3 x_2_ + 0.8 x_4_ - 1 X_2,4_ >= -0.24
c65_1: -0.7 x_1_ - 1 x_3_ + 1 X_1,3_ >= -0.7
c66_1: -0.7 x_2_ - 0.8 x_3_ + 1 X_2,3_ >= -0.5599999999999999
c67_1: -1.4 x_3_ + 1 X_3,3_ >= -0.48999999999999994
c68_1: -2.5 x_3_ - 0.7 x_4_ + 1 X_3,4_ >= -1.75
c69_1: 0.7 x_1_ - 1 x_3_ - 1 X_1,3_ >= -0.7
c70_1: 0.7 x_2_ - 0.5 x_3_ - 1 X_2,3_ >= -0.35
c71_1: -1.3 x_3_ - 1 X_3,3_ >= -1.4
c72_1: -0.3 x_3_ + 0.7 x_4_ - 1 X_3,4_ >= -0.21
c73_1: -2.5 x_1_ - 1 x_4_ + 1 X_1,4_ >= -2.5
c74_1: -2.5 x_2_ - 0.8 x_4_ + 1 X_2,4_ >= -2
c75_1: -2.5 x_3_ - 0.7 x_4_ + 1 X_3,4_ >= -1.75
c76_1: -5 x_4_ + 1 X_4,4_ >= -6.25
c77_1: 2.5 x_1_ - 1 x_4_ - 1 X_1,4_ >= -2.5
c78_1: 2.5 x_2_ - 0.5 x_4_ - 1 X_2,4_ >= -1.25
c79_1: 2.5 x_3_ - 2 x_4_ - 1 X_3,4_ >= -5
c80_1: 2.2 x_4_ - 1 X_4,4_ >= -0.75
c81_1: -1 X_1,1_ >= -1
c82_1: 0.8 x_1_ - 1 x_2_ - 1 X_1,2_ >= -0.8
c83_1: 0.7 x_1_ - 1 x_3_ - 1 X_1,3_ >= -0.7
c84_1: 2.5 x_1_ - 1 x_4_ - 1 X_1,4_ >= -2.5
c85_1: 2 x_1_ + 1 X_1,1_ >= -1
c86_1: 0.5 x_1_ + 1 x_2_ + 1 X_1,2_ >= -0.5
c87_1: 2 x_1_ + 1 x_3_ + 1 X_1,3_ >= -2
c88_1: 0.3 x_1_ + 1 x_4_ + 1 X_1,4_ >= -0.3
c89_1: -0.5 x_1_ + 1 x_2_ - 1 X_1,2_ >= -0.5
c90_1: 0.30000000000000004 x_2_ - 1 X_2,2_ >= -0.4
c91_1: 0.7 x_2_ - 0.5 x_3_ - 1 X_2,3_ >= -0.35
c92_1: 2.5 x_2_ - 0.5 x_4_ - 1 X_2,4_ >= -1.25
c93_1: 0.5 x_1_ + 1 x_2_ + 1 X_1,2_ >= -0.5
c94_1: 1 x_2_ + 1 X_2,2_ >= -0.25
c95_1: 2 x_2_ + 0.5 x_3_ + 1 X_2,3_ >= -1
c96_1: 0.3 x_2_ + 0.5 x_4_ + 1 X_2,4_ >= -0.15
c97_1: -2 x_1_ + 1 x_3_ - 1 X_1,3_ >= -2
c98_1: -2 x_2_ + 0.8 x_3_ - 1 X_2,3_ >= -1.6
c99_1: -1.3 x_3_ - 1 X_3,3_ >= -1.4
c100_1: 2.5 x_3_ - 2 x_4_ - 1 X_3,4_ >= -5
c101_1: 2 x_1_ + 1 x_3_ + 1 X_1,3_ >= -2
c102_1: 2 x_2_ + 0.5 x_3_ + 1 X_2,3_ >= -1
c103_1: 4 x_3_ + 1 X_3,3_ >= -4
c104_1: 0.3 x_3_ + 2 x_4_ + 1 X_3,4_ >= -0.6
c105_1: -0.3 x_1_ + 1 x_4_ - 1 X_1,4_ >= -0.3
c106_1: -0.3 x_2_ + 0.8 x_4_ - 1 X_2,4_ >= -0.24
c107_1: -0.3 x_3_ + 0.7 x_4_ - 1 X_3,4_ >= -0.21
c108_1: 2.2 x_4_ - 1 X_4,4_ >= -0.75
c109_1: 0.3 x_1_ + 1 x_4_ + 1 X_1,4_ >= -0.3
c110_1: 0.3 x_2_ + 0.5 x_4_ + 1 X_2,4_ >= -0.15
c111_1: 0.3 x_3_ + 2 x_4_ + 1 X_3,4_ >= -0.6
c112_1: 0.6 x_4_ + 1 X_4,4_ >= -0.09
c113_1: -1 x_1_ + 1 u_1_ + 1 X_1,1_ - 1 R_1,1_ >= 0
c114_1: -0.8 x_1_ + 0.8 u_1_ + 1 X_1,2_ - 1 R_2,1_ >= 0
c115_1: -0.7 x_1_ + 0.7 u_1_ + 1 X_1,3_ - 1 R_3,1_ >= 0
c116_1: -2.5 x_1_ + 2.5 u_1_ + 1 X_1,4_ - 1 R_4,1_ >= 0
c117_1: -1 x_1_ + 1 u_1_ - 1 X_1,1_ + 1 R_1,1_ >= 0
c118_1: -0.5 x_1_ + 0.5 u_1_ - 1 X_1,2_ + 1 R_2,1_ >= 0
c119_1: -2 x_1_ + 2 u_1_ - 1 X_1,3_ + 1 R_3,1_ >= 0
c120_1: -0.3 x_1_ + 0.3 u_1_ - 1 X_1,4_ + 1 R_4,1_ >= 0
c121_1: -1 x_2_ + 0.8 u_2_ + 1 X_1,2_ - 0.8 R_1,2_ >= 0
c122_1: -0.8 x_2_ + 0.6400000000000001 u_2_ + 1 X_2,2_ - 0.8 R_2,2_ >= 0
c123_1: -0.7 x_2_ + 0.5599999999999999 u_2_ + 1 X_2,3_ - 0.8 R_3,2_ >= 0
c124_1: -2.5 x_2_ + 2 u_2_ + 1 X_2,4_ - 0.8 R_4,2_ >= 0
c125_1: -1 x_2_ + 0.8 u_2_ - 1 X_1,2_ + 0.8 R_1,2_ >= 0
c126_1: -0.5 x_2_ + 0.4 u_2_ - 1 X_2,2_ + 0.8 R_2,2_ >= 0
c127_1: -2 x_2_ + 1.6 u_2_ - 1 X_2,3_ + 0.8 R_3,2_ >= 0
c128_1: -0.3 x_2_ + 0.24 u_2_ - 1 X_2,4_ + 0.8 R_4,2_ >= 0
c129_1: -1 x_3_ + 2 u_3_ + 1 X_1,3_ - 2 R_1,3_ >= 0
c130_1: -0.8 x_3_ + 1.6 u_3_ + 1 X_2,3_ - 2 R_2,3_ >= 0
c131_1: -0.7 x_3_ + 1.4 u_3_ + 1 X_3,3_ - 2 R_3,3_ >= 0
c132_1: -2.5 x_3_ + 5 u_3_ + 1 X_3,4_ - 2 R_4,3_ >= 0
c133_1: -1 x_3_ + 2 u_3_ - 1 X_1,3_ + 2 R_1,3_ >= 0
c134_1: -0.5 x_3_ + 1 u_3_ - 1 X_2,3_ + 2 R_2,3_ >= 0
c135_1: -2 x_3_ + 4 u_3_ - 1 X_3,3_ + 2 R_3,3_ >= 0
c136_1: -0.3 x_3_ + 0.6 u_3_ - 1 X_3,4_ + 2 R_4,3_ >= 0
c137_1: -1 x_4_ + 2.5 u_4_ + 1 X_1,4_ - 2.5 R_1,4_ >= 0
c138_1: -0.8 x_4_ + 2 u_4_ + 1 X_2,4_ - 2.5 R_2,4_ >= 0
c139_1: -0.7 x_4_ + 1.75 u_4_ + 1 X_3,4_ - 2.5 R_3,4_ >= 0
c140_1: -2.5 x_4_ + 6.25 u_4_ + 1 X_4,4_ - 2.5 R_4,4_ >= 0
c141_1: -1 x_4_ + 2.5 u_4_ - 1 X_1,4_ + 2.5 R_1,4_ >= 0
c142_1: -0.5 x_4_ + 1.25 u_4_ - 1 X_2,4_ + 2.5 R_2,4_ >= 0
c143_1: -2 x_4_ + 5 u_4_ - 1 X_3,4_ + 2.5 R_3,4_ >= 0
c144_1: -0.3 x_4_ + 0.75 u_4_ - 1 X_4,4_ + 2.5 R_4,4_ >= 0
c145_1: 1 x_1_ + 1 u_1_ - 1 X_1,1_ - 1 R_1,1_ >= 0
c146_1: 0.8 x_1_ + 0.8 u_1_ - 1 X_1,2_ - 1 R_2,1_ >= 0
c147_1: 0.7 x_1_ + 0.7 u_1_ - 1 X_1,3_ - 1 R_3,1_ >= 0
c148_1: 2.5 x_1_ + 2.5 u_1_ - 1 X_1,4_ - 1 R_4,1_ >= 0
c149_1: 1 x_1_ + 1 u_1_ + 1 X_1,1_ + 1 R_1,1_ >= 0
c150_1: 0.5 x_1_ + 0.5 u_1_ + 1 X_1,2_ + 1 R_2,1_ >= 0
c151_1: 2 x_1_ + 2 u_1_ + 1 X_1,3_ + 1 R_3,1_ >= 0
c152_1: 0.3 x_1_ + 0.3 u_1_ + 1 X_1,4_ + 1 R_4,1_ >= 0
c153_1: 1 x_2_ + 0.8 u_2_ - 1 X_1,2_ - 0.8 R_1,2_ >= 0
c154_1: 0.8 x_2_ + 0.6400000000000001 u_2_ - 1 X_2,2_ - 0.8 R_2,2_ >= 0
c155_1: 0.7 x_2_ + 0.5599999999999999 u_2_ - 1 X_2,3_ - 0.8 R_3,2_ >= 0
c156_1: 2.5 x_2_ + 2 u_2_ - 1 X_2,4_ - 0.8 R_4,2_ >= 0
c157_1: 1 x_2_ + 0.8 u_2_ + 1 X_1,2_ + 0.8 R_1,2_ >= 0
c158_1: 0.5 x_2_ + 0.4 u_2_ + 1 X_2,2_ + 0.8 R_2,2_ >= 0
c159_1: 2 x_2_ + 1.6 u_2_ + 1 X_2,3_ + 0.8 R_3,2_ >= 0
c160_1: 0.3 x_2_ + 0.24 u_2_ + 1 X_2,4_ + 0.8 R_4,2_ >= 0
c161_1: 1 x_3_ + 2 u_3_ - 1 X_1,3_ - 2 R_1,3_ >= 0
c162_1: 0.8 x_3_ + 1.6 u_3_ - 1 X_2,3_ - 2 R_2,3_ >= 0
c163_1: 0.7 x_3_ + 1.4 u_3_ - 1 X_3,3_ - 2 R_3,3_ >= 0
c164_1: 2.5 x_3_ + 5 u_3_ - 1 X_3,4_ - 2 R_4,3_ >= 0
c165_1: 1 x_3_ + 2 u_3_ + 1 X_1,3_ + 2 R_1,3_ >= 0
c166_1: 0.5 x_3_ + 1 u_3_ + 1 X_2,3_ + 2 R_2,3_ >= 0
c167_1: 2 x_3_ + 4 u_3_ + 1 X_3,3_ + 2 R_3,3_ >= 0
c168_1: 0.3 x_3_ + 0.6 u_3_ + 1 X_3,4_ + 2 R_4,3_ >= 0
c169_1: 1 x_4_ + 2.5 u_4_ - 1 X_1,4_ - 2.5 R_1,4_ >= 0
c170_1: 0.8 x_4_ + 2 u_4_ - 1 X_2,4_ - 2.5 R_2,4_ >= 0
c171_1: 0.7 x_4_ + 1.75 u_4_ - 1 X_3,4_ - 2.5 R_3,4_ >= 0
c172_1: 2.5 x_4_ + 6.25 u_4_ - 1 X_4,4_ - 2.5 R_4,4_ >= 0
c173: 1 x_4_ + 2.5 u_4_ + 1 X_1,4_ + 2.5 R_1,4_ >= 0
c174: 0.5 x_4_ + 1.25 u_4_ + 1 X_2,4_ + 2.5 R_2,4_ >= 0
c175: 2 x_4_ + 5 u_4_ + 1 X_3,4_ + 2.5 R_3,4_ >= 0
c176: 0.3 x_4_ + 0.75 u_4_ + 1 X_4,4_ + 2.5 R_4,4_ >= 0
c177: -6 u_1_ - 6 u_2_ - 6 u_3_ - 6 u_4_ + 1 U_1,1_ + 2 U_1,2_ + 1 U_2,2_ + 2 U_1,3_ + 2 U_2,3_ + 1 U_3,3_ + 2 U_1,4_ + 2 U_2,4_ + 2 U_3,4_ + 1 U_4,4_ >= -9
c178: -3 x_1_ - 1 u_1_ - 1 u_2_ - 1 u_3_ - 1 u_4_ + 1 R_1,1_ + 1 R_1,2_ + 1 R_1,3_ + 1 R_1,4_ >= -3
c179: -3 x_2_ - 0.8 u_1_ - 0.8 u_2_ - 0.8 u_3_ - 0.8 u_4_ + 1 R_2,1_ + 1 R_2,2_ + 1 R_2,3_ + 1 R_2,4_ >= -2.4000000000000004
c180: -3 x_3_ - 0.7 u_1_ - 0.7 u_2_ - 0.7 u_3_ - 0.7 u_4_ + 1 R_3,1_ + 1 R_3,2_ + 1 R_3,3_ + 1 R_3,4_ >= -2.0999999999999996
c181: -3 x_4_ - 2.5 u_1_ - 2.5 u_2_ - 2.5 u_3_ - 2.5 u_4_ + 1 R_4,1_ + 1 R_4,2_ + 1 R_4,3_ + 1 R_4,4_ >= -7.5
c182: 3 x_1_ - 1 u_1_ - 1 u_2_ - 1 u_3_ - 1 u_4_ - 1 R_1,1_ - 1 R_1,2_ - 1 R_1,3_ - 1 R_1,4_ >= -3
c183: 3 x_2_ - 0.5 u_1_ - 0.5 u_2_ - 0.5 u_3_ - 0.5 u_4_ - 1 R_2,1_ - 1 R_2,2_ - 1 R_2,3_ - 1 R_2,4_ >= -1.5
c184: 3 x_3_ - 2 u_1_ - 2 u_2_ - 2 u_3_ - 2 u_4_ - 1 R_3,1_ - 1 R_3,2_ - 1 R_3,3_ - 1 R_3,4_ >= -6
c185: 3 x_4_ - 0.3 u_1_ - 0.3 u_2_ - 0.3 u_3_ - 0.3 u_4_ - 1 R_4,1_ - 1 R_4,2_ - 1 R_4,3_ - 1 R_4,4_ >= -0.8999999999999999
c186: -3 x_1_ + 3 u_1_ + 1 R_1,1_ + 1 R_1,2_ + 1 R_1,3_ + 1 R_1,4_ - 1 U_1,1_ - 1 U_1,2_ - 1 U_1,3_ - 1 U_1,4_ >= 0
c187: -3 x_2_ + 2.4000000000000004 u_2_ + 1 R_2,1_ + 1 R_2,2_ + 1 R_2,3_ + 1 R_2,4_ - 0.8 U_1,2_ - 0.8 U_2,2_ - 0.8 U_2,3_ - 0.8 U_2,4_ >= 0
c188: -3 x_3_ + 6 u_3_ + 1 R_3,1_ + 1 R_3,2_ + 1 R_3,3_ + 1 R_3,4_ - 2 U_1,3_ - 2 U_2,3_ - 2 U_3,3_ - 2 U_3,4_ >= 0
c189: -3 x_4_ + 7.5 u_4_ + 1 R_4,1_ + 1 R_4,2_ + 1 R_4,3_ + 1 R_4,4_ - 2.5 U_1,4_ - 2.5 U_2,4_ - 2.5 U_3,4_ - 2.5 U_4,4_ >= 0
c190: 3 x_1_ + 3 u_1_ - 1 R_1,1_ - 1 R_1,2_ - 1 R_1,3_ - 1 R_1,4_ - 1 U_1,1_ - 1 U_1,2_ - 1 U_1,3_ - 1 U_1,4_ >= 0
c191: 3 x_2_ + 2.4000000000000004 u_2_ - 1 R_2,1_ - 1 R_2,2_ - 1 R_2,3_ - 1 R_2,4_ - 0.8 U_1,2_ - 0.8 U_2,2_ - 0.8 U_2,3_ - 0.8 U_2,4_ >= 0
c192: 3 x_3_ + 6 u_3_ - 1 R_3,1_ - 1 R_3,2_ - 1 R_3,3_ - 1 R_3,4_ - 2 U_1,3_ - 2 U_2,3_ - 2 U_3,3_ - 2 U_3,4_ >= 0
c193: 3 x_4_ + 7.5 u_4_ - 1 R_4,1_ - 1 R_4,2_ - 1 R_4,3_ - 1 R_4,4_ - 2.5 U_1,4_ - 2.5 U_2,4_ - 2.5 U_3,4_ - 2.5 U_4,4_ >= 0
c194: -2 u_1_ + 1 U_1,1_ >= -1
c195: -1 u_1_ - 1 u_2_ + 1 U_1,2_ >= -1
c196: -1 u_1_ - 1 u_3_ + 1 U_1,3_ >= -1
c197: -1 u_1_ - 1 u_4_ + 1 U_1,4_ >= -1
c198: -1 u_1_ - 1 u_2_ + 1 U_1,2_ >= -1
c199: -2 u_2_ + 1 U_2,2_ >= -1
c200: -1 u_2_ - 1 u_3_ + 1 U_2,3_ >= -1
c201: -1 u_2_ - 1 u_4_ + 1 U_2,4_ >= -1
c202: -1 u_1_ - 1 u_3_ + 1 U_1,3_ >= -1
c203: -1 u_2_ - 1 u_3_ + 1 U_2,3_ >= -1
c204: -2 u_3_ + 1 U_3,3_ >= -1
c205: -1 u_3_ - 1 u_4_ + 1 U_3,4_ >= -1
c206: -1 u_1_ - 1 u_4_ + 1 U_1,4_ >= -1
c207: -1 u_2_ - 1 u_4_ + 1 U_2,4_ >= -1
c208: -1 u_3_ - 1 u_4_ + 1 U_3,4_ >= -1
c209: -2 u_4_ + 1 U_4,4_ >= -1
c210: -1 x_1_ - 1 u_1_ + 1 R_1,1_ >= -1
c211: -1 x_2_ - 0.8 u_1_ + 1 R_2,1_ >= -0.8
c212: -1 x_3_ - 0.7 u_1_ + 1 R_3,1_ >= -0.7
c213: -1 x_4_ - 2.5 u_1_ + 1 R_4,1_ >= -2.5
c214: 1 x_1_ - 1 u_1_ - 1 R_1,1_ >= -1
c215: 1 x_2_ - 0.5 u_1_ - 1 R_2,1_ >= -0.5
c216: 1 x_3_ - 2 u_1_ - 1 R_3,1_ >= -2
c217: 1 x_4_ - 0.3 u_1_ - 1 R_4,1_ >= -0.3
c218: -1 x_1_ - 1 u_2_ + 1 R_1,2_ >= -1
c219: -1 x_2_ - 0.8 u_2_ + 1 R_2,2_ >= -0.8
c220: -1 x_3_ - 0.7 u_2_ + 1 R_3,2_ >= -0.7
c221: -1 x_4_ - 2.5 u_2_ + 1 R_4,2_ >= -2.5
c222: 1 x_1_ - 1 u_2_ - 1 R_1,2_ >= -1
c223: 1 x_2_ - 0.5 u_2_ - 1 R_2,2_ >= -0.5
c224: 1 x_3_ - 2 u_2_ - 1 R_3,2_ >= -2
c225: 1 x_4_ - 0.3 u_2_ - 1 R_4,2_ >= -0.3
c226: -1 x_1_ - 1 u_3_ + 1 R_1,3_ >= -1
c227: -1 x_2_ - 0.8 u_3_ + 1 R_2,3_ >= -0.8
c228: -1 x_3_ - 0.7 u_3_ + 1 R_3,3_ >= -0.7
c229: -1 x_4_ - 2.5 u_3_ + 1 R_4,3_ >= -2.5
c230: 1 x_1_ - 1 u_3_ - 1 R_1,3_ >= -1
c231: 1 x_2_ - 0.5 u_3_ - 1 R_2,3_ >= -0.5
c232: 1 x_3_ - 2 u_3_ - 1 R_3,3_ >= -2
c233: 1 x_4_ - 0.3 u_3_ - 1 R_4,3_ >= -0.3
c234: -1 x_1_ - 1 u_4_ + 1 R_1,4_ >= -1
c235: -1 x_2_ - 0.8 u_4_ + 1 R_2,4_ >= -0.8
c236: -1 x_3_ - 0.7 u_4_ + 1 R_3,4_ >= -0.7
c237: -1 x_4_ - 2.5 u_4_ + 1 R_4,4_ >= -2.5
c238: 1 x_1_ - 1 u_4_ - 1 R_1,4_ >= -1
c239: 1 x_2_ - 0.5 u_4_ - 1 R_2,4_ >= -0.5
c240: 1 x_3_ - 2 u_4_ - 1 R_3,4_ >= -2
c241: 1 x_4_ - 0.3 u_4_ - 1 R_4,4_ >= -0.3
c242: -1 x_1_ + 1 u_1_ + 1 R_1,1_ - 1 U_1,1_ >= 0
c243: -1 x_2_ + 0.8 u_2_ + 1 R_2,1_ - 0.8 U_1,2_ >= 0
c244: -1 x_3_ + 2 u_3_ + 1 R_3,1_ - 2 U_1,3_ >= 0
c245: -1 x_4_ + 2.5 u_4_ + 1 R_4,1_ - 2.5 U_1,4_ >= 0
c246: -1 x_1_ + 1 u_1_ + 1 R_1,2_ - 1 U_1,2_ >= 0
c247: -1 x_2_ + 0.8 u_2_ + 1 R_2,2_ - 0.8 U_2,2_ >= 0
c248: -1 x_3_ + 2 u_3_ + 1 R_3,2_ - 2 U_2,3_ >= 0
c249: -1 x_4_ + 2.5 u_4_ + 1 R_4,2_ - 2.5 U_2,4_ >= 0
c250: -1 x_1_ + 1 u_1_ + 1 R_1,3_ - 1 U_1,3_ >= 0
c251: -1 x_2_ + 0.8 u_2_ + 1 R_2,3_ - 0.8 U_2,3_ >= 0
c252: -1 x_3_ + 2 u_3_ + 1 R_3,3_ - 2 U_3,3_ >= 0
c253: -1 x_4_ + 2.5 u_4_ + 1 R_4,3_ - 2.5 U_3,4_ >= 0
c254: -1 x_1_ + 1 u_1_ + 1 R_1,4_ - 1 U_1,4_ >= 0
c255: -1 x_2_ + 0.8 u_2_ + 1 R_2,4_ - 0.8 U_2,4_ >= 0
c256: -1 x_3_ + 2 u_3_ + 1 R_3,4_ - 2 U_3,4_ >= 0
c257: -1 x_4_ + 2.5 u_4_ + 1 R_4,4_ - 2.5 U_4,4_ >= 0
c258: 1 x_1_ + 1 u_1_ - 1 R_1,1_ - 1 U_1,1_ >= 0
c259: 1 x_2_ + 0.8 u_2_ - 1 R_2,1_ - 0.8 U_1,2_ >= 0
c260: 1 x_3_ + 2 u_3_ - 1 R_3,1_ - 2 U_1,3_ >= 0
c261: 1 x_4_ + 2.5 u_4_ - 1 R_4,1_ - 2.5 U_1,4_ >= 0
c262: 1 x_1_ + 1 u_1_ - 1 R_1,2_ - 1 U_1,2_ >= 0
c263: 1 x_2_ + 0.8 u_2_ - 1 R_2,2_ - 0.8 U_2,2_ >= 0
c264: 1 x_3_ + 2 u_3_ - 1 R_3,2_ - 2 U_2,3_ >= 0
c265: 1 x_4_ + 2.5 u_4_ - 1 R_4,2_ - 2.5 U_2,4_ >= 0
c266: 1 x_1_ + 1 u_1_ - 1 R_1,3_ - 1 U_1,3_ >= 0
c267: 1 x_2_ + 0.8 u_2_ - 1 R_2,3_ - 0.8 U_2,3_ >= 0
c268: 1 x_3_ + 2 u_3_ - 1 R_3,3_ - 2 U_3,3_ >= 0
c269: 1 x_4_ + 2.5 u_4_ - 1 R_4,3_ - 2.5 U_3,4_ >= 0
c270: 1 x_1_ + 1 u_1_ - 1 R_1,4_ - 1 U_1,4_ >= 0
c271: 1 x_2_ + 0.8 u_2_ - 1 R_2,4_ - 0.8 U_2,4_ >= 0
c272: 1 x_3_ + 2 u_3_ - 1 R_3,4_ - 2 U_3,4_ >= 0
c273: 1 x_4_ + 2.5 u_4_ - 1 R_4,4_ - 2.5 U_4,4_ >= 0
c274: -4 u_1_ - 1 u_2_ - 1 u_3_ - 1 u_4_ + 1 U_1,1_ + 1 U_1,2_ + 1 U_1,3_ + 1 U_1,4_ >= -3
c275: -1 u_1_ - 4 u_2_ - 1 u_3_ - 1 u_4_ + 1 U_1,2_ + 1 U_2,2_ + 1 U_2,3_ + 1 U_2,4_ >= -3
c276: -1 u_1_ - 1 u_2_ - 4 u_3_ - 1 u_4_ + 1 U_1,3_ + 1 U_2,3_ + 1 U_3,3_ + 1 U_3,4_ >= -3
c277: -1 u_1_ - 1 u_2_ - 1 u_3_ - 4 u_4_ + 1 U_1,4_ + 1 U_2,4_ + 1 U_3,4_ + 1 U_4,4_ >= -3
c1: -1 u_1_ + 1 U_1,1_ = 0
c2: -1 u_2_ + 1 U_2,2_ = 0
c3: -1 u_3_ + 1 U_3,3_ = 0
c4: -1 u_4_ + 1 U_4,4_ = 0
c5:  = 0
c6: 1 _UU_2,1_ - 1 _UU_1,2_ = 0
c7: 1 _UU_3,1_ - 1 _UU_1,3_ = 0
c8: 1 _UU_4,1_ - 1 _UU_1,4_ = 0
c9: -1 _UU_2,1_ + 1 _UU_1,2_ = 0
c10:  = 0
c11: 1 _UU_3,2_ - 1 _UU_2,3_ = 0
c12: 1 _UU_4,2_ - 1 _UU_2,4_ = 0
c13: -1 _UU_3,1_ + 1 _UU_1,3_ = 0
c14: -1 _UU_3,2_ + 1 _UU_2,3_ = 0
c15:  = 0
c16: 1 _UU_4,3_ - 1 _UU_3,4_ = 0
c17: -1 _UU_4,1_ + 1 _UU_1,4_ = 0
c18: -1 _UU_4,2_ + 1 _UU_2,4_ = 0
c19: -1 _UU_4,3_ + 1 _UU_3,4_ = 0
c20:  = 0
c21:  = 0
c22: 1 _LL_2,1_ - 1 _LL_1,2_ = 0
c23: 1 _LL_3,1_ - 1 _LL_1,3_ = 0
c24: 1 _LL_4,1_ - 1 _LL_1,4_ = 0
c25: -1 _LL_2,1_ + 1 _LL_1,2_ = 0
c26:  = 0
c27: 1 _LL_3,2_ - 1 _LL_2,3_ = 0
c28: 1 _LL_4,2_ - 1 _LL_2,4_ = 0
c29: -1 _LL_3,1_ + 1 _LL_1,3_ = 0
c30: -1 _LL_3,2_ + 1 _LL_2,3_ = 0
c31:  = 0
c32: 1 _LL_4,3_ - 1 _LL_3,4_ = 0
c33: -1 _LL_4,1_ + 1 _LL_1,4_ = 0
c34: -1 _LL_4,2_ + 1 _LL_2,4_ = 0
c35: -1 _LL_4,3_ + 1 _LL_3,4_ = 0
c36:  = 0
c37:  = 0
c38: 1 __2,1_ - 1 __1,2_ = 0
c39: 1 __3,1_ - 1 __1,3_ = 0
c40: 1 __4,1_ - 1 __1,4_ = 0
c41: 1 __5,1_ - 1 __1,5_ = 0
c42: 1 __6,1_ - 1 __1,6_ = 0
c43: 1 __7,1_ - 1 __1,7_ = 0
c44: 1 __8,1_ - 1 __1,8_ = 0
c45: -1 __2,1_ + 1 __1,2_ = 0
c46:  = 0
c47: 1 __3,2_ - 1 __2,3_ = 0
c48: 1 __4,2_ - 1 __2,4_ = 0
c49: 1 __5,2_ - 1 __2,5_ = 0
c50: 1 __6,2_ - 1 __2,6_ = 0
c51: 1 __7,2_ - 1 __2,7_ = 0
c52: 1 __8,2_ - 1 __2,8_ = 0
c53: -1 __3,1_ + 1 __1,3_ = 0
c54: -1 __3,2_ + 1 __2,3_ = 0
c55:  = 0
c56: 1 __4,3_ - 1 __3,4_ = 0
c57: 1 __5,3_ - 1 __3,5_ = 0
c58: 1 __6,3_ - 1 __3,6_ = 0
c59: 1 __7,3_ - 1 __3,7_ = 0
c60: 1 __8,3_ - 1 __3,8_ = 0
c61: -1 __4,1_ + 1 __1,4_ = 0
c62: -1 __4,2_ + 1 __2,4_ = 0
c63: -1 __4,3_ + 1 __3,4_ = 0
c64:  = 0
c65: 1 __5,4_ - 1 __4,5_ = 0
c66: 1 __6,4_ - 1 __4,6_ = 0
c67: 1 __7,4_ - 1 __4,7_ = 0
c68: 1 __8,4_ - 1 __4,8_ = 0
c69: -1 __5,1_ + 1 __1,5_ = 0
c70: -1 __5,2_ + 1 __2,5_ = 0
c71: -1 __5,3_ + 1 __3,5_ = 0
c72: -1 __5,4_ + 1 __4,5_ = 0
c73:  = 0
c74: 1 __6,5_ - 1 __5,6_ = 0
c75: 1 __7,5_ - 1 __5,7_ = 0
c76: 1 __8,5_ - 1 __5,8_ = 0
c77: -1 __6,1_ + 1 __1,6_ = 0
c78: -1 __6,2_ + 1 __2,6_ = 0
c79: -1 __6,3_ + 1 __3,6_ = 0
c80: -1 __6,4_ + 1 __4,6_ = 0
c81: -1 __6,5_ + 1 __5,6_ = 0
c82:  = 0
c83: 1 __7,6_ - 1 __6,7_ = 0
c84: 1 __8,6_ - 1 __6,8_ = 0
c85: -1 __7,1_ + 1 __1,7_ = 0
c86: -1 __7,2_ + 1 __2,7_ = 0
c87: -1 __7,3_ + 1 __3,7_ = 0
c88: -1 __7,4_ + 1 __4,7_ = 0
c89: -1 __7,5_ + 1 __5,7_ = 0
c90: -1 __7,6_ + 1 __6,7_ = 0
c91:  = 0
c92: 1 __8,7_ - 1 __7,8_ = 0
c93: -1 __8,1_ + 1 __1,8_ = 0
c94: -1 __8,2_ + 1 __2,8_ = 0
c95: -1 __8,3_ + 1 __3,8_ = 0
c96: -1 __8,4_ + 1 __4,8_ = 0
c97: -1 __8,5_ + 1 __5,8_ = 0
c98: -1 __8,6_ + 1 __6,8_ = 0
c99: -1 __8,7_ + 1 __7,8_ = 0
c100:  = 0
c101:  = 0
c102: 1 __2,1__1 - 1 __1,2__1 = 0
c103: 1 __3,1__1 - 1 __1,3__1 = 0
c104: 1 __4,1__1 - 1 __1,4__1 = 0
c105: -1 __2,1__1 + 1 __1,2__1 = 0
c106:  = 0
c107: 1 __3,2__1 - 1 __2,3__1 = 0
c108: 1 __4,2__1 - 1 __2,4__1 = 0
c109: -1 __3,1__1 + 1 __1,3__1 = 0
c110: -1 __3,2__1 + 1 __2,3__1 = 0
c111:  = 0
c112: 1 __4,3__1 - 1 __3,4__1 = 0
c113: -1 __4,1__1 + 1 __1,4__1 = 0
c114: -1 __4,2__1 + 1 __2,4__1 = 0
c115: -1 __4,3__1 + 1 __3,4__1 = 0
c116:  = 0
c117: 1 q0_var_1_ + 1 __1_ - 1 __1__1 + 1 __1__3 - 1 __5_ + 1 __1,1_ - 1 __5,1_ + 0.8 __1,2_ - 0.8 __5,2_ + 0.7 __1,3_ - 0.7 __5,3_ + 2.5 __1,4_ - 2.5 __5,4_ + 1 __1,5_ - 1 __5,5_ + 0.5 __1,6_ - 0.5 __5,6_ + 2 __1,7_ - 2 __5,7_ + 0.3 __1,8_ - 0.3 __5,8_ + 1 _AU_1,1_ + 0.8 _AU_2,1_ + 0.7 _AU_3,1_ + 2.5 _AU_4,1_ + 1 _AU_5,1_ + 0.5 _AU_6,1_ + 2 _AU_7,1_ + 0.3 _AU_8,1_ - 1 _AL_1,1_ - 0.8 _AL_2,1_ - 0.7 _AL_3,1_ - 2.5 _AL_4,1_ - 1 _AL_5,1_ - 0.5 _AL_6,1_ - 2 _AL_7,1_ - 0.3 _AL_8,1_ - 3 __1__4 + 1 __1,1__2 - 1 __5,1__1 + 1 __1,2__2 - 1 __5,2__1 + 1 __1,3__2 - 1 __5,3__1 + 1 __1,4__2 - 1 __5,4__1 + 1 _p_1,1_ + 1 _p_1,2_ + 1 _p_1,3_ + 1 _p_1,4_ - 1 _m_1,1_ - 1 _m_1,2_ - 1 _m_1,3_ - 1 _m_1,4_ = 0
c118: 1 q0_var_2_ + 1 __2_ - 1 __2__1 + 1 __2__3 - 1 __6_ + 1 __2,1_ - 1 __6,1_ + 0.8 __2,2_ - 0.8 __6,2_ + 0.7 __2,3_ - 0.7 __6,3_ + 2.5 __2,4_ - 2.5 __6,4_ + 1 __2,5_ - 1 __6,5_ + 0.5 __2,6_ - 0.5 __6,6_ + 2 __2,7_ - 2 __6,7_ + 0.3 __2,8_ - 0.3 __6,8_ + 1 _AU_1,2_ + 0.8 _AU_2,2_ + 0.7 _AU_3,2_ + 2.5 _AU_4,2_ + 1 _AU_5,2_ + 0.5 _AU_6,2_ + 2 _AU_7,2_ + 0.3 _AU_8,2_ - 1 _AL_1,2_ - 0.8 _AL_2,2_ - 0.7 _AL_3,2_ - 2.5 _AL_4,2_ - 1 _AL_5,2_ - 0.5 _AL_6,2_ - 2 _AL_7,2_ - 0.3 _AL_8,2_ - 3 __2__4 + 1 __2,1__2 - 1 __6,1__1 + 1 __2,2__2 - 1 __6,2__1 + 1 __2,3__2 - 1 __6,3__1 + 1 __2,4__2 - 1 __6,4__1 + 1 _p_2,1_ + 1 _p_2,2_ + 1 _p_2,3_ + 1 _p_2,4_ - 1 _m_2,1_ - 1 _m_2,2_ - 1 _m_2,3_ - 1 _m_2,4_ = 0
c119: 1 q0_var_3_ + 1 __3_ - 1 __3__1 + 1 __3__3 - 1 __7_ + 1 __3,1_ - 1 __7,1_ + 0.8 __3,2_ - 0.8 __7,2_ + 0.7 __3,3_ - 0.7 __7,3_ + 2.5 __3,4_ - 2.5 __7,4_ + 1 __3,5_ - 1 __7,5_ + 0.5 __3,6_ - 0.5 __7,6_ + 2 __3,7_ - 2 __7,7_ + 0.3 __3,8_ - 0.3 __7,8_ + 1 _AU_1,3_ + 0.8 _AU_2,3_ + 0.7 _AU_3,3_ + 2.5 _AU_4,3_ + 1 _AU_5,3_ + 0.5 _AU_6,3_ + 2 _AU_7,3_ + 0.3 _AU_8,3_ - 1 _AL_1,3_ - 0.8 _AL_2,3_ - 0.7 _AL_3,3_ - 2.5 _AL_4,3_ - 1 _AL_5,3_ - 0.5 _AL_6,3_ - 2 _AL_7,3_ - 0.3 _AL_8,3_ - 3 __3__4 + 1 __3,1__2 - 1 __7,1__1 + 1 __3,2__2 - 1 __7,2__1 + 1 __3,3__2 - 1 __7,3__1 + 1 __3,4__2 - 1 __7,4__1 + 1 _p_3,1_ + 1 _p_3,2_ + 1 _p_3,3_ + 1 _p_3,4_ - 1 _m_3,1_ - 1 _m_3,2_ - 1 _m_3,3_ - 1 _m_3,4_ = 0
c120: 1 q0_var_4_ + 1 __4_ - 1 __4__1 + 1 __4__3 - 1 __8_ + 1 __4,1_ - 1 __8,1_ + 0.8 __4,2_ - 0.8 __8,2_ + 0.7 __4,3_ - 0.7 __8,3_ + 2.5 __4,4_ - 2.5 __8,4_ + 1 __4,5_ - 1 __8,5_ + 0.5 __4,6_ - 0.5 __8,6_ + 2 __4,7_ - 2 __8,7_ + 0.3 __4,8_ - 0.3 __8,8_ + 1 _AU_1,4_ + 0.8 _AU_2,4_ + 0.7 _AU_3,4_ + 2.5 _AU_4,4_ + 1 _AU_5,4_ + 0.5 _AU_6,4_ + 2 _AU_7,4_ + 0.3 _AU_8,4_ - 1 _AL_1,4_ - 0.8 _AL_2,4_ - 0.7 _AL_3,4_ - 2.5 _AL_4,4_ - 1 _AL_5,4_ - 0.5 _AL_6,4_ - 2 _AL_7,4_ - 0.3 _AL_8,4_ - 3 __4__4 + 1 __4,1__2 - 1 __8,1__1 + 1 __4,2__2 - 1 __8,2__1 + 1 __4,3__2 - 1 __8,3__1 + 1 __4,4__2 - 1 __8,4__1 + 1 _p_4,1_ + 1 _p_4,2_ + 1 _p_4,3_ + 1 _p_4,4_ - 1 _m_4,1_ - 1 _m_4,2_ - 1 _m_4,3_ - 1 _m_4,4_ = 0
c121: 1 _UU_1,1_ + 1 _LL_1,1_ - 2 _UL_1,1_ + 1 __1,1_ - 1 __5,1_ - 1 __1,5_ + 1 __5,5_ + 2 _AU_1,1_ - 2 _AU_5,1_ - 2 _AL_1,1_ + 2 _AL_5,1_ = 0
c122: 1 _UU_2,1_ + 1 _LL_2,1_ - 1 _UL_2,1_ - 1 _UL_1,2_ + 1 __2,1_ - 1 __6,1_ - 1 __2,5_ + 1 __6,5_ + 1 _AU_2,1_ - 1 _AU_6,1_ + 1 _AU_1,2_ - 1 _AU_5,2_ - 1 _AL_2,1_ + 1 _AL_6,1_ - 1 _AL_1,2_ + 1 _AL_5,2_ = 0
c123: 1 _UU_3,1_ + 1 _LL_3,1_ - 1 _UL_3,1_ - 1 _UL_1,3_ + 1 __3,1_ - 1 __7,1_ - 1 __3,5_ + 1 __7,5_ + 1 _AU_3,1_ - 1 _AU_7,1_ + 1 _AU_1,3_ - 1 _AU_5,3_ - 1 _AL_3,1_ + 1 _AL_7,1_ - 1 _AL_1,3_ + 1 _AL_5,3_ = 0
c124: 1 _UU_4,1_ + 1 _LL_4,1_ - 1 _UL_4,1_ - 1 _UL_1,4_ + 1 __4,1_ - 1 __8,1_ - 1 __4,5_ + 1 __8,5_ + 1 _AU_4,1_ - 1 _AU_8,1_ + 1 _AU_1,4_ - 1 _AU_5,4_ - 1 _AL_4,1_ + 1 _AL_8,1_ - 1 _AL_1,4_ + 1 _AL_5,4_ = 0
c125: 1 _UU_1,2_ + 1 _LL_1,2_ - 1 _UL_2,1_ - 1 _UL_1,2_ + 1 __1,2_ - 1 __5,2_ - 1 __1,6_ + 1 __5,6_ + 1 _AU_2,1_ - 1 _AU_6,1_ + 1 _AU_1,2_ - 1 _AU_5,2_ - 1 _AL_2,1_ + 1 _AL_6,1_ - 1 _AL_1,2_ + 1 _AL_5,2_ = 0
c126: 1 _UU_2,2_ + 1 _LL_2,2_ - 2 _UL_2,2_ + 1 __2,2_ - 1 __6,2_ - 1 __2,6_ + 1 __6,6_ + 2 _AU_2,2_ - 2 _AU_6,2_ - 2 _AL_2,2_ + 2 _AL_6,2_ = 0
c127: 1 _UU_3,2_ + 1 _LL_3,2_ - 1 _UL_3,2_ - 1 _UL_2,3_ + 1 __3,2_ - 1 __7,2_ - 1 __3,6_ + 1 __7,6_ + 1 _AU_3,2_ - 1 _AU_7,2_ + 1 _AU_2,3_ - 1 _AU_6,3_ - 1 _AL_3,2_ + 1 _AL_7,2_ - 1 _AL_2,3_ + 1 _AL_6,3_ = 0
c128: 1 _UU_4,2_ + 1 _LL_4,2_ - 1 _UL_4,2_ - 1 _UL_2,4_ + 1 __4,2_ - 1 __8,2_ - 1 __4,6_ + 1 __8,6_ + 1 _AU_4,2_ - 1 _AU_8,2_ + 1 _AU_2,4_ - 1 _AU_6,4_ - 1 _AL_4,2_ + 1 _AL_8,2_ - 1 _AL_2,4_ + 1 _AL_6,4_ = 0
c129: 1 _UU_1,3_ + 1 _LL_1,3_ - 1 _UL_3,1_ - 1 _UL_1,3_ + 1 __1,3_ - 1 __5,3_ - 1 __1,7_ + 1 __5,7_ + 1 _AU_3,1_ - 1 _AU_7,1_ + 1 _AU_1,3_ - 1 _AU_5,3_ - 1 _AL_3,1_ + 1 _AL_7,1_ - 1 _AL_1,3_ + 1 _AL_5,3_ = 0
c130: 1 _UU_2,3_ + 1 _LL_2,3_ - 1 _UL_3,2_ - 1 _UL_2,3_ + 1 __2,3_ - 1 __6,3_ - 1 __2,7_ + 1 __6,7_ + 1 _AU_3,2_ - 1 _AU_7,2_ + 1 _AU_2,3_ - 1 _AU_6,3_ - 1 _AL_3,2_ + 1 _AL_7,2_ - 1 _AL_2,3_ + 1 _AL_6,3_ = 0
c131: 1 _UU_3,3_ + 1 _LL_3,3_ - 2 _UL_3,3_ + 1 __3,3_ - 1 __7,3_ - 1 __3,7_ + 1 __7,7_ + 2 _AU_3,3_ - 2 _AU_7,3_ - 2 _AL_3,3_ + 2 _AL_7,3_ = 0
c132: 1 _UU_4,3_ + 1 _LL_4,3_ - 1 _UL_4,3_ - 1 _UL_3,4_ + 1 __4,3_ - 1 __8,3_ - 1 __4,7_ + 1 __8,7_ + 1 _AU_4,3_ - 1 _AU_8,3_ + 1 _AU_3,4_ - 1 _AU_7,4_ - 1 _AL_4,3_ + 1 _AL_8,3_ - 1 _AL_3,4_ + 1 _AL_7,4_ = 0
c133: 1 _UU_1,4_ + 1 _LL_1,4_ - 1 _UL_4,1_ - 1 _UL_1,4_ + 1 __1,4_ - 1 __5,4_ - 1 __1,8_ + 1 __5,8_ + 1 _AU_4,1_ - 1 _AU_8,1_ + 1 _AU_1,4_ - 1 _AU_5,4_ - 1 _AL_4,1_ + 1 _AL_8,1_ - 1 _AL_1,4_ + 1 _AL_5,4_ = 0
c134: 1 _UU_2,4_ + 1 _LL_2,4_ - 1 _UL_4,2_ - 1 _UL_2,4_ + 1 __2,4_ - 1 __6,4_ - 1 __2,8_ + 1 __6,8_ + 1 _AU_4,2_ - 1 _AU_8,2_ + 1 _AU_2,4_ - 1 _AU_6,4_ - 1 _AL_4,2_ + 1 _AL_8,2_ - 1 _AL_2,4_ + 1 _AL_6,4_ = 0
c135: 1 _UU_3,4_ + 1 _LL_3,4_ - 1 _UL_4,3_ - 1 _UL_3,4_ + 1 __3,4_ - 1 __7,4_ - 1 __3,8_ + 1 __7,8_ + 1 _AU_4,3_ - 1 _AU_8,3_ + 1 _AU_3,4_ - 1 _AU_7,4_ - 1 _AL_4,3_ + 1 _AL_8,3_ - 1 _AL_3,4_ + 1 _AL_7,4_ = 0
c136: 1 _UU_4,4_ + 1 _LL_4,4_ - 2 _UL_4,4_ + 1 __4,4_ - 1 __8,4_ - 1 __4,8_ + 1 __8,8_ + 2 _AU_4,4_ - 2 _AU_8,4_ - 2 _AL_4,4_ + 2 _AL_8,4_ = 0
c137: -1 __1_ - 1 __1__1 + 1 _ - 1 __1__2 - 1 _AU_1,1_ - 0.8 _AU_2,1_ - 0.7 _AU_3,1_ - 2.5 _AU_4,1_ - 1 _AU_5,1_ - 0.5 _AU_6,1_ - 2 _AU_7,1_ - 0.3 _AU_8,1_ - 1 _AL_1,1_ - 0.8 _AL_2,1_ - 0.7 _AL_3,1_ - 2.5 _AL_4,1_ - 1 _AL_5,1_ - 0.5 _AL_6,1_ - 2 _AL_7,1_ - 0.3 _AL_8,1_ - 3 __1__5 + 1 __1__6 + 1 __1,1__1 + 1 __1,2__1 + 1 __1,3__1 + 1 __1,4__1 + 1 __1,1__2 + 0.8 __2,1__2 + 0.7 __3,1__2 + 2.5 __4,1__2 + 1 __5,1__1 + 0.5 __6,1__1 + 2 __7,1__1 + 0.3 __8,1__1 - 1 _p_1,1_ - 1 _p_1,2_ - 1 _p_1,3_ - 1 _p_1,4_ - 1 _m_1,1_ - 1 _m_1,2_ - 1 _m_1,3_ - 1 _m_1,4_ = 0
c138: -0.8 __2_ - 0.8 __2__1 + 1 _ - 1 __2__2 - 0.8 _AU_1,2_ - 0.6400000000000001 _AU_2,2_ - 0.5599999999999999 _AU_3,2_ - 2 _AU_4,2_ - 0.8 _AU_5,2_ - 0.4 _AU_6,2_ - 1.6 _AU_7,2_ - 0.24 _AU_8,2_ - 0.8 _AL_1,2_ - 0.6400000000000001 _AL_2,2_ - 0.5599999999999999 _AL_3,2_ - 2 _AL_4,2_ - 0.8 _AL_5,2_ - 0.4 _AL_6,2_ - 1.6 _AL_7,2_ - 0.24 _AL_8,2_ - 3 __2__5 + 1 __2__6 + 1 __2,1__1 + 1 __2,2__1 + 1 __2,3__1 + 1 __2,4__1 + 1 __1,2__2 + 0.8 __2,2__2 + 0.7 __3,2__2 + 2.5 __4,2__2 + 1 __5,2__1 + 0.5 __6,2__1 + 2 __7,2__1 + 0.3 __8,2__1 - 0.8 _p_2,1_ - 0.8 _p_2,2_ - 0.8 _p_2,3_ - 0.8 _p_2,4_ - 0.8 _m_2,1_ - 0.8 _m_2,2_ - 0.8 _m_2,3_ - 0.8 _m_2,4_ = 0
c139: -2 __3_ - 2 __3__1 + 1 _ - 1 __3__2 - 2 _AU_1,3_ - 1.6 _AU_2,3_ - 1.4 _AU_3,3_ - 5 _AU_4,3_ - 2 _AU_5,3_ - 1 _AU_6,3_ - 4 _AU_7,3_ - 0.6 _AU_8,3_ - 2 _AL_1,3_ - 1.6 _AL_2,3_ - 1.4 _AL_3,3_ - 5 _AL_4,3_ - 2 _AL_5,3_ - 1 _AL_6,3_ - 4 _AL_7,3_ - 0.6 _AL_8,3_ - 3 __3__5 + 1 __3__6 + 1 __3,1__1 + 1 __3,2__1 + 1 __3,3__1 + 1 __3,4__1 + 1 __1,3__2 + 0.8 __2,3__2 + 0.7 __3,3__2 + 2.5 __4,3__2 + 1 __5,3__1 + 0.5 __6,3__1 + 2 __7,3__1 + 0.3 __8,3__1 - 2 _p_3,1_ - 2 _p_3,2_ - 2 _p_3,3_ - 2 _p_3,4_ - 2 _m_3,1_ - 2 _m_3,2_ - 2 _m_3,3_ - 2 _m_3,4_ = 0
c140: -2.5 __4_ - 2.5 __4__1 + 1 _ - 1 __4__2 - 2.5 _AU_1,4_ - 2 _AU_2,4_ - 1.75 _AU_3,4_ - 6.25 _AU_4,4_ - 2.5 _AU_5,4_ - 1.25 _AU_6,4_ - 5 _AU_7,4_ - 0.75 _AU_8,4_ - 2.5 _AL_1,4_ - 2 _AL_2,4_ - 1.75 _AL_3,4_ - 6.25 _AL_4,4_ - 2.5 _AL_5,4_ - 1.25 _AL_6,4_ - 5 _AL_7,4_ - 0.75 _AL_8,4_ - 3 __4__5 + 1 __4__6 + 1 __4,1__1 + 1 __4,2__1 + 1 __4,3__1 + 1 __4,4__1 + 1 __1,4__2 + 0.8 __2,4__2 + 0.7 __3,4__2 + 2.5 __4,4__2 + 1 __5,4__1 + 0.5 __6,4__1 + 2 __7,4__1 + 0.3 __8,4__1 - 2.5 _p_4,1_ - 2.5 _p_4,2_ - 2.5 _p_4,3_ - 2.5 _p_4,4_ - 2.5 _m_4,1_ - 2.5 _m_4,2_ - 2.5 _m_4,3_ - 2.5 _m_4,4_ = 0
c141: 1 _UU_1,1_ - 1 _LL_1,1_ + 1 _AU_1,1_ - 1 _AU_5,1_ + 1 _AL_1,1_ - 1 _AL_5,1_ + 1 __1__4 - 1 __1,1__2 + 1 __5,1__1 - 1 _p_1,1_ + 1 _m_1,1_ = 0
c142: 1 _UU_2,1_ - 1 _LL_2,1_ + 1 _UL_2,1_ - 1 _UL_1,2_ + 1 _AU_2,1_ - 1 _AU_6,1_ + 1 _AL_2,1_ - 1 _AL_6,1_ + 1 __2__4 - 1 __2,1__2 + 1 __6,1__1 - 1 _p_2,1_ + 1 _m_2,1_ = 0
c143: 1 _UU_3,1_ - 1 _LL_3,1_ + 1 _UL_3,1_ - 1 _UL_1,3_ + 1 _AU_3,1_ - 1 _AU_7,1_ + 1 _AL_3,1_ - 1 _AL_7,1_ + 1 __3__4 - 1 __3,1__2 + 1 __7,1__1 - 1 _p_3,1_ + 1 _m_3,1_ = 0
c144: 1 _UU_4,1_ - 1 _LL_4,1_ + 1 _UL_4,1_ - 1 _UL_1,4_ + 1 _AU_4,1_ - 1 _AU_8,1_ + 1 _AL_4,1_ - 1 _AL_8,1_ + 1 __4__4 - 1 __4,1__2 + 1 __8,1__1 - 1 _p_4,1_ + 1 _m_4,1_ = 0
c145: 0.8 _UU_1,2_ - 0.8 _LL_1,2_ - 0.8 _UL_2,1_ + 0.8 _UL_1,2_ + 0.8 _AU_1,2_ - 0.8 _AU_5,2_ + 0.8 _AL_1,2_ - 0.8 _AL_5,2_ + 1 __1__4 - 1 __1,2__2 + 1 __5,2__1 - 1 _p_1,2_ + 1 _m_1,2_ = 0
c146: 0.8 _UU_2,2_ - 0.8 _LL_2,2_ + 0.8 _AU_2,2_ - 0.8 _AU_6,2_ + 0.8 _AL_2,2_ - 0.8 _AL_6,2_ + 1 __2__4 - 1 __2,2__2 + 1 __6,2__1 - 1 _p_2,2_ + 1 _m_2,2_ = 0
c147: 0.8 _UU_3,2_ - 0.8 _LL_3,2_ + 0.8 _UL_3,2_ - 0.8 _UL_2,3_ + 0.8 _AU_3,2_ - 0.8 _AU_7,2_ + 0.8 _AL_3,2_ - 0.8 _AL_7,2_ + 1 __3__4 - 1 __3,2__2 + 1 __7,2__1 - 1 _p_3,2_ + 1 _m_3,2_ = 0
c148: 0.8 _UU_4,2_ - 0.8 _LL_4,2_ + 0.8 _UL_4,2_ - 0.8 _UL_2,4_ + 0.8 _AU_4,2_ - 0.8 _AU_8,2_ + 0.8 _AL_4,2_ - 0.8 _AL_8,2_ + 1 __4__4 - 1 __4,2__2 + 1 __8,2__1 - 1 _p_4,2_ + 1 _m_4,2_ = 0
c149: 2 _UU_1,3_ - 2 _LL_1,3_ - 2 _UL_3,1_ + 2 _UL_1,3_ + 2 _AU_1,3_ - 2 _AU_5,3_ + 2 _AL_1,3_ - 2 _AL_5,3_ + 1 __1__4 - 1 __1,3__2 + 1 __5,3__1 - 1 _p_1,3_ + 1 _m_1,3_ = 0
c150: 2 _UU_2,3_ - 2 _LL_2,3_ - 2 _UL_3,2_ + 2 _UL_2,3_ + 2 _AU_2,3_ - 2 _AU_6,3_ + 2 _AL_2,3_ - 2 _AL_6,3_ + 1 __2__4 - 1 __2,3__2 + 1 __6,3__1 - 1 _p_2,3_ + 1 _m_2,3_ = 0
c151: 2 _UU_3,3_ - 2 _LL_3,3_ + 2 _AU_3,3_ - 2 _AU_7,3_ + 2 _AL_3,3_ - 2 _AL_7,3_ + 1 __3__4 - 1 __3,3__2 + 1 __7,3__1 - 1 _p_3,3_ + 1 _m_3,3_ = 0
c152: 2 _UU_4,3_ - 2 _LL_4,3_ + 2 _UL_4,3_ - 2 _UL_3,4_ + 2 _AU_4,3_ - 2 _AU_8,3_ + 2 _AL_4,3_ - 2 _AL_8,3_ + 1 __4__4 - 1 __4,3__2 + 1 __8,3__1 - 1 _p_4,3_ + 1 _m_4,3_ = 0
c153: 2.5 _UU_1,4_ - 2.5 _LL_1,4_ - 2.5 _UL_4,1_ + 2.5 _UL_1,4_ + 2.5 _AU_1,4_ - 2.5 _AU_5,4_ + 2.5 _AL_1,4_ - 2.5 _AL_5,4_ + 1 __1__4 - 1 __1,4__2 + 1 __5,4__1 - 1 _p_1,4_ + 1 _m_1,4_ = 0
c154: 2.5 _UU_2,4_ - 2.5 _LL_2,4_ - 2.5 _UL_4,2_ + 2.5 _UL_2,4_ + 2.5 _AU_2,4_ - 2.5 _AU_6,4_ + 2.5 _AL_2,4_ - 2.5 _AL_6,4_ + 1 __2__4 - 1 __2,4__2 + 1 __6,4__1 - 1 _p_2,4_ + 1 _m_2,4_ = 0
c155: 2.5 _UU_3,4_ - 2.5 _LL_3,4_ - 2.5 _UL_4,3_ + 2.5 _UL_3,4_ + 2.5 _AU_3,4_ - 2.5 _AU_7,4_ + 2.5 _AL_3,4_ - 2.5 _AL_7,4_ + 1 __3__4 - 1 __3,4__2 + 1 __7,4__1 - 1 _p_3,4_ + 1 _m_3,4_ = 0
c156: 2.5 _UU_4,4_ - 2.5 _LL_4,4_ + 2.5 _AU_4,4_ - 2.5 _AU_8,4_ + 2.5 _AL_4,4_ - 2.5 _AL_8,4_ + 1 __4__4 - 1 __4,4__2 + 1 __8,4__1 - 1 _p_4,4_ + 1 _m_4,4_ = 0
c157: 1 __1__2 - 0.5 _UU_1,1_ - 0.5 _LL_1,1_ - 1 _UL_1,1_ + 1 __1__5 - 0.5 __1,1__1 + 1 _p_1,1_ + 1 _m_1,1_ = 0
c158: -0.4 _UU_2,1_ - 0.4 _LL_2,1_ - 0.4 _UL_2,1_ - 0.4 _UL_1,2_ + 0.5 __1__5 + 0.5 __2__5 - 0.5 __2,1__1 + 0.4 _p_2,1_ + 0.5 _p_1,2_ + 0.4 _m_2,1_ + 0.5 _m_1,2_ = 0
c159: -1 _UU_3,1_ - 1 _LL_3,1_ - 1 _UL_3,1_ - 1 _UL_1,3_ + 0.5 __1__5 + 0.5 __3__5 - 0.5 __3,1__1 + 1 _p_3,1_ + 0.5 _p_1,3_ + 1 _m_3,1_ + 0.5 _m_1,3_ = 0
c160: -1.25 _UU_4,1_ - 1.25 _LL_4,1_ - 1.25 _UL_4,1_ - 1.25 _UL_1,4_ + 0.5 __1__5 + 0.5 __4__5 - 0.5 __4,1__1 + 1.25 _p_4,1_ + 0.5 _p_1,4_ + 1.25 _m_4,1_ + 0.5 _m_1,4_ = 0
c161: -0.4 _UU_1,2_ - 0.4 _LL_1,2_ - 0.4 _UL_2,1_ - 0.4 _UL_1,2_ + 0.5 __1__5 + 0.5 __2__5 - 0.5 __1,2__1 + 0.4 _p_2,1_ + 0.5 _p_1,2_ + 0.4 _m_2,1_ + 0.5 _m_1,2_ = 0
c162: 1 __2__2 - 0.32000000000000006 _UU_2,2_ - 0.32000000000000006 _LL_2,2_ - 0.6400000000000001 _UL_2,2_ + 1 __2__5 - 0.5 __2,2__1 + 0.8 _p_2,2_ + 0.8 _m_2,2_ = 0
c163: -0.8 _UU_3,2_ - 0.8 _LL_3,2_ - 0.8 _UL_3,2_ - 0.8 _UL_2,3_ + 0.5 __2__5 + 0.5 __3__5 - 0.5 __3,2__1 + 1 _p_3,2_ + 0.4 _p_2,3_ + 1 _m_3,2_ + 0.4 _m_2,3_ = 0
c164: -1 _UU_4,2_ - 1 _LL_4,2_ - 1 _UL_4,2_ - 1 _UL_2,4_ + 0.5 __2__5 + 0.5 __4__5 - 0.5 __4,2__1 + 1.25 _p_4,2_ + 0.4 _p_2,4_ + 1.25 _m_4,2_ + 0.4 _m_2,4_ = 0
c165: -1 _UU_1,3_ - 1 _LL_1,3_ - 1 _UL_3,1_ - 1 _UL_1,3_ + 0.5 __1__5 + 0.5 __3__5 - 0.5 __1,3__1 + 1 _p_3,1_ + 0.5 _p_1,3_ + 1 _m_3,1_ + 0.5 _m_1,3_ = 0
c166: -0.8 _UU_2,3_ - 0.8 _LL_2,3_ - 0.8 _UL_3,2_ - 0.8 _UL_2,3_ + 0.5 __2__5 + 0.5 __3__5 - 0.5 __2,3__1 + 1 _p_3,2_ + 0.4 _p_2,3_ + 1 _m_3,2_ + 0.4 _m_2,3_ = 0
c167: 1 __3__2 - 2 _UU_3,3_ - 2 _LL_3,3_ - 4 _UL_3,3_ + 1 __3__5 - 0.5 __3,3__1 + 2 _p_3,3_ + 2 _m_3,3_ = 0
c168: -2.5 _UU_4,3_ - 2.5 _LL_4,3_ - 2.5 _UL_4,3_ - 2.5 _UL_3,4_ + 0.5 __3__5 + 0.5 __4__5 - 0.5 __4,3__1 + 1.25 _p_4,3_ + 1 _p_3,4_ + 1.25 _m_4,3_ + 1 _m_3,4_ = 0
c169: -1.25 _UU_1,4_ - 1.25 _LL_1,4_ - 1.25 _UL_4,1_ - 1.25 _UL_1,4_ + 0.5 __1__5 + 0.5 __4__5 - 0.5 __1,4__1 + 1.25 _p_4,1_ + 0.5 _p_1,4_ + 1.25 _m_4,1_ + 0.5 _m_1,4_ = 0
c170: -1 _UU_2,4_ - 1 _LL_2,4_ - 1 _UL_4,2_ - 1 _UL_2,4_ + 0.5 __2__5 + 0.5 __4__5 - 0.5 __2,4__1 + 1.25 _p_4,2_ + 0.4 _p_2,4_ + 1.25 _m_4,2_ + 0.4 _m_2,4_ = 0
c171: -2.5 _UU_3,4_ - 2.5 _LL_3,4_ - 2.5 _UL_4,3_ - 2.5 _UL_3,4_ + 0.5 __3__5 + 0.5 __4__5 - 0.5 __3,4__1 + 1.25 _p_4,3_ + 1 _p_3,4_ + 1.25 _m_4,3_ + 1 _m_3,4_ = 0
c172: 1 __4__2 - 3.125 _UU_4,4_ - 3.125 _LL_4,4_ - 6.25 _UL_4,4_ + 1 __4__5 - 0.5 __4,4__1 + 2.5 _p_4,4_ + 2.5 _m_4,4_ = 0
Bounds
q0_var_1_ free
q0_var_2_ free
q0_var_3_ free
q0_var_4_ free
x_1_ free
x_2_ free
x_3_ free
x_4_ free
u_1_ free
u_2_ free
u_3_ free
u_4_ free
X_1,1_ free
X_1,2_ free
X_2,2_ free
X_1,3_ free
X_2,3_ free
X_3,3_ free
X_1,4_ free
X_2,4_ free
X_3,4_ free
X_4,4_ free
R_1,1_ free
R_2,1_ free
R_3,1_ free
R_4,1_ free
R_1,2_ free
R_2,2_ free
R_3,2_ free
R_4,2_ free
R_1,3_ free
R_2,3_ free
R_3,3_ free
R_4,3_ free
R_1,4_ free
R_2,4_ free
R_3,4_ free
R_4,4_ free
U_1,1_ free
U_1,2_ free
U_2,2_ free
U_1,3_ free
U_2,3_ free
U_3,3_ free
U_1,4_ free
U_2,4_ free
U_3,4_ free
U_4,4_ free
__1_ >= 0
__2_ >= 0
__3_ >= 0
__4_ >= 0
__1__1 >= 0
__2__1 >= 0
__3__1 >= 0
__4__1 >= 0
_ free
__1__2 free
__2__2 free
__3__2 free
__4__2 free
_UU_1,1_ >= 0
_UU_2,1_ >= 0
_UU_3,1_ >= 0
_UU_4,1_ >= 0
_UU_1,2_ >= 0
_UU_2,2_ >= 0
_UU_3,2_ >= 0
_UU_4,2_ >= 0
_UU_1,3_ >= 0
_UU_2,3_ >= 0
_UU_3,3_ >= 0
_UU_4,3_ >= 0
_UU_1,4_ >= 0
_UU_2,4_ >= 0
_UU_3,4_ >= 0
_UU_4,4_ >= 0
_LL_1,1_ >= 0
_LL_2,1_ >= 0
_LL_3,1_ >= 0
_LL_4,1_ >= 0
_LL_1,2_ >= 0
_LL_2,2_ >= 0
_LL_3,2_ >= 0
_LL_4,2_ >= 0
_LL_1,3_ >= 0
_LL_2,3_ >= 0
_LL_3,3_ >= 0
_LL_4,3_ >= 0
_LL_1,4_ >= 0
_LL_2,4_ >= 0
_LL_3,4_ >= 0
_LL_4,4_ >= 0
_UL_1,1_ >= 0
_UL_2,1_ >= 0
_UL_3,1_ >= 0
_UL_4,1_ >= 0
_UL_1,2_ >= 0
_UL_2,2_ >= 0
_UL_3,2_ >= 0
_UL_4,2_ >= 0
_UL_1,3_ >= 0
_UL_2,3_ >= 0
_UL_3,3_ >= 0
_UL_4,3_ >= 0
_UL_1,4_ >= 0
_UL_2,4_ >= 0
_UL_3,4_ >= 0
_UL_4,4_ >= 0
__1__3 >= 0
__2__3 >= 0
__3__3 >= 0
__4__3 >= 0
__5_ >= 0
__6_ >= 0
__7_ >= 0
__8_ >= 0
__1,1_ >= 0
__2,1_ >= 0
__3,1_ >= 0
__4,1_ >= 0
__5,1_ >= 0
__6,1_ >= 0
__7,1_ >= 0
__8,1_ >= 0
__1,2_ >= 0
__2,2_ >= 0
__3,2_ >= 0
__4,2_ >= 0
__5,2_ >= 0
__6,2_ >= 0
__7,2_ >= 0
__8,2_ >= 0
__1,3_ >= 0
__2,3_ >= 0
__3,3_ >= 0
__4,3_ >= 0
__5,3_ >= 0
__6,3_ >= 0
__7,3_ >= 0
__8,3_ >= 0
__1,4_ >= 0
__2,4_ >= 0
__3,4_ >= 0
__4,4_ >= 0
__5,4_ >= 0
__6,4_ >= 0
__7,4_ >= 0
__8,4_ >= 0
__1,5_ >= 0
__2,5_ >= 0
__3,5_ >= 0
__4,5_ >= 0
__5,5_ >= 0
__6,5_ >= 0
__7,5_ >= 0
__8,5_ >= 0
__1,6_ >= 0
__2,6_ >= 0
__3,6_ >= 0
__4,6_ >= 0
__5,6_ >= 0
__6,6_ >= 0
__7,6_ >= 0
__8,6_ >= 0
__1,7_ >= 0
__2,7_ >= 0
__3,7_ >= 0
__4,7_ >= 0
__5,7_ >= 0
__6,7_ >= 0
__7,7_ >= 0
__8,7_ >= 0
__1,8_ >= 0
__2,8_ >= 0
__3,8_ >= 0
__4,8_ >= 0
__5,8_ >= 0
__6,8_ >= 0
__7,8_ >= 0
__8,8_ >= 0
_AU_1,1_ >= 0
_AU_2,1_ >= 0
_AU_3,1_ >= 0
_AU_4,1_ >= 0
_AU_5,1_ >= 0
_AU_6,1_ >= 0
_AU_7,1_ >= 0
_AU_8,1_ >= 0
_AU_1,2_ >= 0
_AU_2,2_ >= 0
_AU_3,2_ >= 0
_AU_4,2_ >= 0
_AU_5,2_ >= 0
_AU_6,2_ >= 0
_AU_7,2_ >= 0
_AU_8,2_ >= 0
_AU_1,3_ >= 0
_AU_2,3_ >= 0
_AU_3,3_ >= 0
_AU_4,3_ >= 0
_AU_5,3_ >= 0
_AU_6,3_ >= 0
_AU_7,3_ >= 0
_AU_8,3_ >= 0
_AU_1,4_ >= 0
_AU_2,4_ >= 0
_AU_3,4_ >= 0
_AU_4,4_ >= 0
_AU_5,4_ >= 0
_AU_6,4_ >= 0
_AU_7,4_ >= 0
_AU_8,4_ >= 0
_AL_1,1_ >= 0
_AL_2,1_ >= 0
_AL_3,1_ >= 0
_AL_4,1_ >= 0
_AL_5,1_ >= 0
_AL_6,1_ >= 0
_AL_7,1_ >= 0
_AL_8,1_ >= 0
_AL_1,2_ >= 0
_AL_2,2_ >= 0
_AL_3,2_ >= 0
_AL_4,2_ >= 0
_AL_5,2_ >= 0
_AL_6,2_ >= 0
_AL_7,2_ >= 0
_AL_8,2_ >= 0
_AL_1,3_ >= 0
_AL_2,3_ >= 0
_AL_3,3_ >= 0
_AL_4,3_ >= 0
_AL_5,3_ >= 0
_AL_6,3_ >= 0
_AL_7,3_ >= 0
_AL_8,3_ >= 0
_AL_1,4_ >= 0
_AL_2,4_ >= 0
_AL_3,4_ >= 0
_AL_4,4_ >= 0
_AL_5,4_ >= 0
_AL_6,4_ >= 0
_AL_7,4_ >= 0
_AL_8,4_ >= 0
__1__4 free
__2__4 free
__3__4 free
__4__4 free
__1__5 free
__2__5 free
__3__5 free
__4__5 free
__1__6 >= 0
__2__6 >= 0
__3__6 >= 0
__4__6 >= 0
__1,1__1 >= 0
__2,1__1 >= 0
__3,1__1 >= 0
__4,1__1 >= 0
__1,2__1 >= 0
__2,2__1 >= 0
__3,2__1 >= 0
__4,2__1 >= 0
__1,3__1 >= 0
__2,3__1 >= 0
__3,3__1 >= 0
__4,3__1 >= 0
__1,4__1 >= 0
__2,4__1 >= 0
__3,4__1 >= 0
__4,4__1 >= 0
__1,1__2 >= 0
__2,1__2 >= 0
__3,1__2 >= 0
__4,1__2 >= 0
__5,1__1 >= 0
__6,1__1 >= 0
__7,1__1 >= 0
__8,1__1 >= 0
__1,2__2 >= 0
__2,2__2 >= 0
__3,2__2 >= 0
__4,2__2 >= 0
__5,2__1 >= 0
__6,2__1 >= 0
__7,2__1 >= 0
__8,2__1 >= 0
__1,3__2 >= 0
__2,3__2 >= 0
__3,3__2 >= 0
__4,3__2 >= 0
__5,3__1 >= 0
__6,3__1 >= 0
__7,3__1 >= 0
__8,3__1 >= 0
__1,4__2 >= 0
__2,4__2 >= 0
__3,4__2 >= 0
__4,4__2 >= 0
__5,4__1 >= 0
__6,4__1 >= 0
__7,4__1 >= 0
__8,4__1 >= 0
_p_1,1_ >= 0
_p_2,1_ >= 0
_p_3,1_ >= 0
_p_4,1_ >= 0
_p_1,2_ >= 0
_p_2,2_ >= 0
_p_3,2_ >= 0
_p_4,2_ >= 0
_p_1,3_ >= 0
_p_2,3_ >= 0
_p_3,3_ >= 0
_p_4,3_ >= 0
_p_1,4_ >= 0
_p_2,4_ >= 0
_p_3,4_ >= 0
_p_4,4_ >= 0
_m_1,1_ >= 0
_m_2,1_ >= 0
_m_3,1_ >= 0
_m_4,1_ >= 0
_m_1,2_ >= 0
_m_2,2_ >= 0
_m_3,2_ >= 0
_m_4,2_ >= 0
_m_1,3_ >= 0
_m_2,3_ >= 0
_m_3,3_ >= 0
_m_4,3_ >= 0
_m_1,4_ >= 0
_m_2,4_ >= 0
_m_3,4_ >= 0
_m_4,4_ >= 0
General
q0_var_1_
q0_var_2_
q0_var_3_
q0_var_4_
End
